p cnf 77 225
c t mc
1 -2 -3 0
-1 2 -3 0
1 2 3 0
-1 -2 3 0
-6 -4 0
-6 5 0
4 -5 6 0
8 -7 0
8 -7 0
7 -8 0
-9 6 0
-9 8 0
-6 -8 9 0
-11 -1 0
-11 -10 0
1 10 11 0
14 -15 -16 0
-14 15 -16 0
14 15 16 0
-14 -15 16 0
17 13 0
17 16 0
-13 -16 -17 0
12 17 -18 0
-12 -17 -18 0
12 -17 18 0
-12 17 18 0
-11 18 -19 0
11 -18 -19 0
-11 -18 19 0
11 18 19 0
-22 -20 0
-22 -21 0
20 21 22 0
-23 19 0
-23 22 0
-19 -22 23 0
24 7 0
24 5 0
-7 -5 -24 0
21 24 -25 0
-21 -24 -25 0
21 -24 25 0
-21 24 25 0
23 25 -26 0
-23 -25 -26 0
23 -25 26 0
-23 25 26 0
27 -9 0
27 26 0
9 -26 -27 0
-28 3 0
-28 -27 0
-3 27 28 0
30 -15 0
30 29 0
15 -29 -30 0
31 -16 0
31 -30 0
16 30 -31 0
33 34 -35 0
-33 -34 -35 0
33 -34 35 0
-33 34 35 0
-36 32 0
-36 -35 0
-32 35 36 0
-10 -37 -38 0
10 37 -38 0
-10 37 38 0
10 -37 38 0
-39 38 0
-39 37 0
-38 -37 39 0
39 -12 -40 0
-39 12 -40 0
39 12 40 0
-39 -12 40 0
36 -40 -41 0
-36 40 -41 0
36 40 41 0
-36 -40 41 0
-42 31 0
-42 -41 0
-31 41 42 0
-17 5 -43 0
17 -5 -43 0
-17 -5 43 0
17 5 43 0
-44 -43 0
-44 21 0
43 -21 44 0
-45 42 0
-45 44 0
-42 -44 45 0
46 5 0
46 -43 0
-5 43 -46 0
-29 -47 0
29 -47 0
-48 -35 0
-48 -1 0
35 1 48 0
-49 2 0
-49 -13 0
-2 13 49 0
-50 48 0
-50 -49 0
-48 49 50 0
52 -24 0
52 51 0
24 -51 -52 0
-53 50 0
-53 52 0
-50 -52 53 0
-54 -47 0
-54 -53 0
47 53 54 0
-46 54 -55 0
46 -54 -55 0
-46 -54 55 0
46 54 55 0
56 -45 0
56 -55 0
45 55 -56 0
-33 -4 -57 0
33 4 -57 0
-33 4 57 0
33 -4 57 0
-59 32 0
-59 -58 0
-32 58 59 0
60 -57 0
60 59 0
57 -59 -60 0
56 -60 -61 0
-56 60 -61 0
56 60 61 0
-56 -60 61 0
-62 16 0
-62 -32 0
-16 32 62 0
12 -51 -63 0
-12 51 -63 0
12 51 63 0
-12 -51 63 0
64 16 0
64 63 0
-16 -63 -64 0
65 30 0
65 1 0
-30 -1 -65 0
66 64 0
66 -65 0
-64 65 -66 0
-67 -62 0
-67 -66 0
62 66 67 0
68 -18 0
68 -34 0
18 34 -68 0
-69 2 0
-69 68 0
-2 -68 69 0
-71 -30 0
-71 2 0
30 -2 71 0
-72 71 0
-72 71 0
-71 72 0
70 -72 -73 0
-70 72 -73 0
70 72 73 0
-70 -72 73 0
74 69 0
74 73 0
-69 -73 -74 0
67 -74 -75 0
-67 74 -75 0
67 74 75 0
-67 -74 75 0
-76 61 0
-76 -75 0
-61 75 76 0
-28 -76 -77 0
28 76 -77 0
-28 76 77 0
28 -76 77 0
34 -10 40 -32 20 77 0
-22 76 34 -5 -8 -72 -3 0
-4 6 0
-30 -38 -46 -56 54 57 75 61 0
-10 59 -71 69 0
66 77 39 -27 35 0
47 50 39 -32 12 6 0
22 -45 64 28 14 8 76 -31 0
-12 71 -42 53 33 -72 -46 0
-21 76 -50 22 4 17 63 -56 0
-45 -60 13 -73 -8 0
19 -70 -24 27 58 -60 0
-30 -40 0
-56 -77 -74 43 35 -24 39 -51 38 0
-55 -29 -49 -17 -27 0
-1 -26 56 0
31 -69 -9 -50 0
72 54 -41 6 0
25 -40 -67 -18 66 44 0
73 63 0
-25 42 -23 62 45 -52 -61 63 -65 0
75 3 24 8 0
52 -9 65 -77 0
-21 -24 61 11 28 -6 3 56 0
-33 -52 10 0
4 22 -1 -41 -13 0
-32 36 69 16 3 57 -14 -4 68 0
-64 55 13 -12 -32 -31 -48 75 0
-21 57 48 16 62 -25 0
-43 -64 58 45 -42 23 -51 0
-43 -72 41 -46 -52 45 -15 -30 27 -32 0
8 29 0
28 42 -37 -22 -34 -5 -8 0
69 -54 53 -14 51 17 70 -44 30 0
-39 74 0
-30 53 48 46 61 71 -43 39 11 0
77 0
